NAME
* Written by aykut
OBJSENSE
    MIN
ROWS
 N  obj
 E  c1
COLUMNS
    x1        obj       3
    x1        c1        1
    x2        obj       2
    x2        c1        2
    x3        obj       2
    x3        c1        3
    x4        obj       5
    x4        c1        5
    x5        obj       1
    x5        c1        2
    x6        obj       4
    x6        c1        1
    x7        obj       1
    x7        c1        3
RHS
    rhs       c1        17
RANGES
BOUNDS
 LO bound     x1        0
 LO bound     x2        0
 FR bound     x3
 LO bound     x4        0
 LO bound     x5        0
 FR bound     x6
 LO bound     x7        0
CSECTION      k1        0              QUAD
    x1
    x2
    x3
    x4
    x5
    x6
    x7
ENDATA
